data/benchmarks/bayes/90-10-1-q.cnf
p cnf 460 411
c weights 0.735841 0.26415900000000003 1 1 1 1 1 1 1 1 1 1 1 1 1 1 1 1 1 1 1 1 1 1 1 1 1 1 1 1 1 1 1 1 1 1 1 1 1 1 1 1 1 1 1 1 1 1 1 1 1 1 1 1 1 1 1 1 1 1 1 1 1 1 1 1 1 1 1 1 1 1 1 1 1 1 1 1 1 1 1 1 1 1 1 1 1 1 1 1 1 1 1 1 1 1 1 1 1 1 1 1 1 1 1 1 1 1 1 1 1 1 1 1 1 1 1 1 1 1 1 1 1 1 1 1 1 1 1 1 1 1 1 1 1 1 1 1 1 1 1 1 1 1 1 1 1 1 1 1 1 1 1 1 1 1 1 1 1 1 1 1 1 1 1 1 1 1 1 1 1 1 1 1 1 1 1 1 1 1 1 1 1 1 1 1 1 1 1 1 1 1 1 1 1 1 1 1 1 1 0.5 0.5 0.5 0.5 0.5 0.5 0.5 0.5 0.59328 0.40671999999999997 0.175112 0.8248880000000001 0.5 0.5 0.5 0.5 0.5 0.5 0.5 0.5 0.5 0.5 0.5 0.5 0.919285 0.08071499999999998 0.0786638 0.9213362 0.5 0.5 0.5 0.5 0.5 0.5 0.5 0.5 0.578982 0.421018 0.0207861 0.9792139 0.5 0.5 0.5 0.5 0.5 0.5 0.5 0.5 0.5 0.5 0.5 0.5 0.5 0.5 0.5 0.5 0.5 0.5 0.5 0.5 0.5 0.5 0.5 0.5 0.324751 0.675249 0.551737 0.44826299999999997 0.297738 0.7022619999999999 0.775936 0.22406400000000004 0.5 0.5 0.5 0.5 0.5 0.5 0.5 0.5 0.5 0.5 0.5 0.5 0.5 0.5 0.5 0.5 0.5 0.5 0.5 0.5 0.5 0.5 0.5 0.5 0.5 0.5 0.5 0.5 0.5 0.5 0.5 0.5 0.5 0.5 0.5 0.5 0.5 0.5 0.5 0.5 0.5 0.5 0.5 0.5 0.684571 0.31542899999999996 0.00350469 0.99649531 0.0668117 0.9331883 0.912272 0.08772800000000003 0.5 0.5 0.5 0.5 0.5 0.5 0.5 0.5 0.5 0.5 0.5 0.5 0.5 0.5 0.5 0.5 0.5 0.5 0.5 0.5 0.5 0.5 0.5 0.5 0.238341 0.761659 0.0511661 0.9488339 0.251252 0.748748 0.756581 0.24341900000000005 0.5 0.5 0.5 0.5 0.5 0.5 0.5 0.5 0.5 0.5 0.5 0.5 0.5 0.5 0.5 0.5 0.5 0.5 0.5 0.5 0.5 0.5 0.5 0.5 0.5 0.5 0.5 0.5 0.5 0.5 0.5 0.5 0.5 0.5 0.5 0.5 0.5 0.5 0.5 0.5 0.5 0.5 0.5 0.5 0.5 0.5 0.5 0.5 0.5 0.5 0.5 0.5 0.5 0.5 0.5 0.5 0.5 0.5 0.5 0.5 0.5 0.5 0.5 0.5 0.5 0.5 0.5 0.5 0.5 0.5 0.5 0.5 0.5 0.5 0.5 0.5 0.5 0.5 0.5 0.5 0.5 0.5 0.5 0.5 0.00143739 0.99856261 0.651473 0.34852700000000003 0.0610738 0.9389262 0.908685 0.09131500000000004 0.5 0.5 0.5 0.5 0.5 0.5 0.5 0.5 0.5 0.5 0.5 0.5 0.5 0.5 0.5 0.5 0.5 0.5 0.5 0.5 0.5 0.5 0.5 0.5 0.5 0.5 0.5 0.5 0.5 0.5 0.5 0.5 0.5 0.5 0.5 0.5 0.5 0.5 0.5 0.5 0.5 0.5 0.5 0.5 0.740444 0.259556 0.420479 0.579521 0.735829 0.26417100000000004 0.131633 0.868367 0.749929 0.25007100000000004 0.51049 0.48951 0.888732 0.11126800000000003 0.431386 0.568614 0.994666 0.00533399999999995 0.240892 0.759108 0.0933189 0.9066811 0.201267 0.798733 0.5 0.5 0.5 0.5 0.5 0.5 0.5 0.5 0.5 0.5 0.5 0.5 0.5 0.5 0.5 0.5 0.5 0.5 0.5 0.5 0.5 0.5 0.5 0.5 0.5 0.5 0.5 0.5 0.5 0.5 0.5 0.5 0.5 0.5 0.5 0.5 0.0808911 0.9191089 0.589725 0.41027499999999995 0.895528 0.10447200000000001 0.0755574 0.9244426 0.5 0.5 0.5 0.5 0.5 0.5 0.5 0.5 0.5 0.5 0.5 0.5 0.5 0.5 0.5 0.5 0.5 0.5 0.5 0.5 0.5 0.5 0.5 0.5 0.5 0.5 0.5 0.5 0.5 0.5 0.5 0.5 0.5 0.5 0.5 0.5 0.5 0.5 0.5 0.5 0.5 0.5 0.5 0.5 0.5 0.5 0.5 0.5 0.5 0.5 0.5 0.5 0.5 0.5 0.5 0.5 0.5 0.5 0.5 0.5 0.5 0.5 0.5 0.5 0.5 0.5 0.5 0.5 0.162035 0.837965 0.306666 0.693334 0.61746 0.38254 0.617259 0.382741 0.5 0.5 0.5 0.5 0.5 0.5 0.5 0.5 0.5 0.5 0.5 0.5 0.5 0.5 0.5 0.5 0.5 0.5 0.5 0.5 0.5 0.5 0.5 0.5 0.5 0.5 0.5 0.5 0.5 0.5 0.5 0.5 0.5 0.5 0.5 0.5 0.5 0.5 0.5 0.5 0.5 0.5 0.5 0.5 0.5 0.5 0.5 0.5 0.5 0.5 0.5 0.5 0.5 0.5 0.5 0.5 0.5 0.5 0.5 0.5 0.5 0.5 0.5 0.5 0.5 0.5 0.5 0.5 0.478052 0.5219480000000001 0.715577 0.284423 0.289325 0.710675 0.858187 0.14181299999999997 0.5 0.5 0.5 0.5 0.5 0.5 0.5 0.5 0.5 0.5 0.5 0.5 0.5 0.5 0.5 0.5 0.5 0.5 0.5 0.5 0.5 0.5 0.5 0.5 0.5 0.5 0.5 0.5 0.5 0.5 0.5 0.5 0.5 0.5 0.5 0.5 0.5 0.5 0.5 0.5 0.5 0.5 0.5 0.5 0.5 0.5 0.5 0.5 0.5 0.5 0.5 0.5 0.5 0.5 0.5 0.5 0.5 0.5 0.5 0.5 0.5 0.5 0.5 0.5 0.5 0.5 0.5 0.5 0.5 0.5 0.5 0.5 0.5 0.5 0.5 0.5 0.5 0.5 0.5 0.5 0.5 0.5 0.5 0.5 0.5 0.5 0.5 0.5 0.5 0.5 0.5 0.5 0.5 0.5 0.5 0.5 0.5 0.5 0.5 0.5 0.5 0.5 0.5 0.5 0.5 0.5 0.5 0.5 0.5 0.5 0.5 0.5 0.5 0.5 0.5 0.5 0.5 0.5 0.5 0.5 0.5 0.5 0.5 0.5 0.5 0.5 0.5 0.5 0.5 0.5 0.5 0.5 0.5 0.5 0.5 0.5 0.5 0.5 0.5 0.5 0.5 0.5 0.5 0.5 0.189813 0.810187 0.461843 0.538157 0.040458 0.959542 0.693522 0.30647800000000003 0.5 0.5 0.5 0.5 0.5 0.5 0.5 0.5 0.5 0.5 0.5 0.5 0.5 0.5 0.5 0.5 0.5 0.5 0.5 0.5 0.5 0.5 0.5 0.5 0.5 0.5 0.5 0.5 0.5 0.5 0.5 0.5 0.5 0.5 0.5 0.5 0.5 0.5 0.5 0.5 0.5 0.5 0.5 0.5 0.5 0.5 0.5 0.5 0.5 0.5 0.5 0.5 0.5 0.5 0.5 0.5
-1 -2 0
1 2 0
-2 3 0
2 -3 0
-3 -105 4 0
-3 105 -4 0
3 -106 4 0
3 106 -4 0
-4 5 0
4 -5 0
-5 -6 0
5 6 0
-6 -7 0
6 7 0
-7 -113 8 0
-7 113 -8 0
7 -114 8 0
7 114 -8 0
-8 9 0
8 -9 0
-9 -10 0
9 10 0
-1 -119 11 0
-1 119 -11 0
1 -120 11 0
1 120 -11 0
-11 -2 -12 0
-11 2 -12 0
11 -2 12 0
11 2 -12 0
-12 -3 13 0
-12 3 13 0
12 -3 -13 0
12 3 13 0
-13 -4 14 0
-13 4 14 0
13 -4 -14 0
13 4 -14 0
-14 -5 -133 15 0
-14 -5 133 -15 0
-14 5 -134 15 0
-14 5 134 -15 0
14 -5 -135 15 0
14 -5 135 -15 0
14 5 -136 15 0
14 5 136 -15 0
-15 -6 16 0
-15 6 16 0
15 -6 -16 0
15 6 16 0
-16 -7 -17 0
-16 7 17 0
16 -7 17 0
16 7 -17 0
-17 -8 -18 0
-17 8 18 0
17 -8 18 0
17 8 -18 0
-18 -9 -19 0
-18 9 19 0
18 -9 19 0
18 9 19 0
-19 -10 20 0
-19 10 20 0
19 -10 -20 0
19 10 20 0
-11 21 0
11 -21 0
-21 -12 -159 22 0
-21 -12 159 -22 0
-21 12 -160 22 0
-21 12 160 -22 0
21 -12 -161 22 0
21 -12 161 -22 0
21 12 -162 22 0
21 12 162 -22 0
-22 -13 23 0
-22 13 -23 0
22 -13 23 0
22 13 23 0
-23 -14 -24 0
-23 14 -24 0
23 -14 -24 0
23 14 24 0
-24 -15 -25 0
-24 15 25 0
24 -15 -25 0
24 15 25 0
-25 -16 -175 26 0
-25 -16 175 -26 0
-25 16 -176 26 0
-25 16 176 -26 0
25 -16 -177 26 0
25 -16 177 -26 0
25 16 -178 26 0
25 16 178 -26 0
-26 -17 27 0
-26 17 27 0
26 -17 -27 0
26 17 27 0
-27 -18 28 0
-27 18 28 0
27 -18 -28 0
27 18 -28 0
-28 -19 29 0
-28 19 -29 0
28 -19 -29 0
28 19 -29 0
-29 -20 -30 0
-29 20 -30 0
29 -20 -30 0
29 20 30 0
-21 -31 0
21 31 0
-31 -22 -32 0
-31 22 32 0
31 -22 -32 0
31 22 32 0
-32 -23 -33 0
-32 23 33 0
32 -23 -33 0
32 23 -33 0
-33 -24 34 0
-33 24 -34 0
33 -24 -34 0
33 24 -34 0
-34 -25 -35 0
-34 25 -35 0
34 -25 -35 0
34 25 35 0
-35 -26 -36 0
-35 26 -36 0
35 -26 36 0
35 26 -36 0
-36 -27 37 0
-36 27 -37 0
36 -27 -37 0
36 27 37 0
-37 -28 -221 38 0
-37 -28 221 -38 0
-37 28 -222 38 0
-37 28 222 -38 0
37 -28 -223 38 0
37 -28 223 -38 0
37 28 -224 38 0
37 28 224 -38 0
-38 -29 39 0
-38 29 -39 0
38 -29 -39 0
38 29 39 0
-39 -30 40 0
-39 30 -40 0
39 -30 40 0
39 30 -40 0
-31 -41 0
31 41 0
-41 -32 -42 0
-41 32 -42 0
41 -32 42 0
41 32 -42 0
-42 -33 -43 0
-42 33 43 0
42 -33 -43 0
42 33 43 0
-43 -34 -44 0
-43 34 44 0
43 -34 44 0
43 34 -44 0
-44 -35 -247 45 0
-44 -35 247 -45 0
-44 35 -248 45 0
-44 35 248 -45 0
44 -35 -249 45 0
44 -35 249 -45 0
44 35 -250 45 0
44 35 250 -45 0
-45 -36 -251 46 0
-45 -36 251 -46 0
-45 36 -252 46 0
-45 36 252 -46 0
45 -36 -253 46 0
45 -36 253 -46 0
45 36 -254 46 0
45 36 254 -46 0
-46 -37 -255 47 0
-46 -37 255 -47 0
-46 37 -256 47 0
-46 37 256 -47 0
46 -37 -257 47 0
46 -37 257 -47 0
46 37 -258 47 0
46 37 258 -47 0
-47 -38 48 0
-47 38 -48 0
47 -38 48 0
47 38 48 0
-48 -39 49 0
-48 39 49 0
48 -39 49 0
48 39 -49 0
-49 -40 -50 0
-49 40 50 0
49 -40 -50 0
49 40 -50 0
-41 -51 0
41 51 0
-51 -42 52 0
-51 42 -52 0
51 -42 52 0
51 42 52 0
-52 -43 -277 53 0
-52 -43 277 -53 0
-52 43 -278 53 0
-52 43 278 -53 0
52 -43 -279 53 0
52 -43 279 -53 0
52 43 -280 53 0
52 43 280 -53 0
-53 -44 -54 0
-53 44 54 0
53 -44 -54 0
53 44 54 0
-54 -45 -55 0
-54 45 55 0
54 -45 55 0
54 45 55 0
-55 -46 56 0
-55 46 56 0
55 -46 -56 0
55 46 56 0
-56 -47 57 0
-56 47 57 0
56 -47 57 0
56 47 -57 0
-57 -48 58 0
-57 48 -58 0
57 -48 58 0
57 48 -58 0
-58 -49 59 0
-58 49 -59 0
58 -49 -59 0
58 49 59 0
-59 -50 60 0
-59 50 -60 0
59 -50 60 0
59 50 -60 0
-51 61 0
51 -61 0
-61 -52 -62 0
-61 52 62 0
61 -52 -62 0
61 52 62 0
-62 -53 -315 63 0
-62 -53 315 -63 0
-62 53 -316 63 0
-62 53 316 -63 0
62 -53 -317 63 0
62 -53 317 -63 0
62 53 -318 63 0
62 53 318 -63 0
-63 -54 64 0
-63 54 -64 0
63 -54 -64 0
63 54 64 0
-64 -55 65 0
-64 55 -65 0
64 -55 65 0
64 55 65 0
-65 -56 66 0
-65 56 -66 0
65 -56 66 0
65 56 -66 0
-66 -57 67 0
-66 57 -67 0
66 -57 67 0
66 57 -67 0
-67 -58 68 0
-67 58 -68 0
67 -58 -68 0
67 58 68 0
-68 -59 69 0
-68 59 -69 0
68 -59 69 0
68 59 69 0
-69 -60 70 0
-69 60 70 0
69 -60 -70 0
69 60 -70 0
-61 71 0
61 -71 0
-71 -62 72 0
-71 62 72 0
71 -62 -72 0
71 62 72 0
-72 -63 -353 73 0
-72 -63 353 -73 0
-72 63 -354 73 0
-72 63 354 -73 0
72 -63 -355 73 0
72 -63 355 -73 0
72 63 -356 73 0
72 63 356 -73 0
-73 -64 74 0
-73 64 74 0
73 -64 74 0
73 64 -74 0
-74 -65 -75 0
-74 65 75 0
74 -65 75 0
74 65 75 0
-75 -66 -76 0
-75 66 76 0
75 -66 76 0
75 66 -76 0
-76 -67 77 0
-76 67 -77 0
76 -67 77 0
76 67 -77 0
-77 -68 -78 0
-77 68 78 0
77 -68 78 0
77 68 78 0
-78 -69 -79 0
-78 69 79 0
78 -69 79 0
78 69 79 0
-79 -70 -80 0
-79 70 -80 0
79 -70 80 0
79 70 -80 0
-71 -81 0
71 81 0
-81 -72 82 0
-81 72 -82 0
81 -72 82 0
81 72 82 0
-82 -73 83 0
-82 73 -83 0
82 -73 -83 0
82 73 83 0
-83 -74 -84 0
-83 74 -84 0
83 -74 84 0
83 74 84 0
-84 -75 85 0
-84 75 -85 0
84 -75 85 0
84 75 85 0
-85 -76 -86 0
-85 76 -86 0
85 -76 -86 0
85 76 86 0
-86 -77 -87 0
-86 77 87 0
86 -77 -87 0
86 77 -87 0
-87 -78 -88 0
-87 78 88 0
87 -78 -88 0
87 78 -88 0
-88 -79 -89 0
-88 79 89 0
88 -79 -89 0
88 79 89 0
-89 -80 -90 0
-89 80 -90 0
89 -80 90 0
89 80 90 0
-81 -91 0
81 91 0
-91 -82 -92 0
-91 82 92 0
91 -82 92 0
91 82 -92 0
-92 -83 -429 93 0
-92 -83 429 -93 0
-92 83 -430 93 0
-92 83 430 -93 0
92 -83 -431 93 0
92 -83 431 -93 0
92 83 -432 93 0
92 83 432 -93 0
-93 -84 -94 0
-93 84 94 0
93 -84 94 0
93 84 94 0
-94 -85 -95 0
-94 85 95 0
94 -85 95 0
94 85 95 0
-95 -86 -96 0
-95 86 96 0
95 -86 -96 0
95 86 -96 0
-96 -87 -97 0
-96 87 97 0
96 -87 -97 0
96 87 -97 0
-97 -88 98 0
-97 88 -98 0
97 -88 -98 0
97 88 -98 0
-98 -89 99 0
-98 89 99 0
98 -89 99 0
98 89 -99 0
-99 -90 -100 0
-99 90 -100 0
99 -90 100 0
99 90 100 0
100 0
