data/benchmarks/bayes/90-10-1-q.gr
p tw 460 405
7 17
67 68
99 100
67 77
83 430
8 9
25 178
8 18
40 50
15 133
41 42
63 317
52 280
73 74
41 51
25 34
73 83
14 15
14 24
74 75
74 84
46 251
4 105
15 16
28 224
47 48
15 25
47 57
59 68
14 136
48 49
93 429
48 58
80 90
81 82
33 42
81 91
45 254
22 23
84 93
22 32
38 224
21 162
66 75
46 255
55 56
7 16
55 65
58 67
25 177
40 49
22 162
52 279
73 82
45 249
32 41
14 23
65 74
47 56
6 15
21 22
14 135
21 31
80 89
39 48
7 114
54 55
54 64
62 315
45 253
11 120
37 258
38 223
87 88
92 432
87 97
21 161
28 29
72 355
28 38
88 89
88 98
29 30
61 62
93 432
61 71
44 247
2 3
16 176
2 12
62 63
94 95
45 248
3 4
35 36
35 45
95 96
36 37
68 69
68 78
69 70
14 134
69 79
7 113
37 221
54 63
13 22
43 44
43 53
38 222
92 431
36 252
87 96
46 55
72 354
76 77
12 160
28 37
76 86
79 88
20 29
16 175
2 11
63 354
53 62
43 277
35 44
53 318
47 256
9 10
86 95
9 19
68 77
3 106
27 36
42 43
42 52
60 69
5 133
44 250
75 76
75 85
16 17
16 26
92 430
36 251
49 50
49 59
12 159
82 83
82 92
23 24
23 33
83 84
26 178
63 353
24 25
56 57
56 66
53 317
47 255
57 58
89 90
89 99
30 40
31 32
35 249
34 43
64 65
5 6
67 76
83 429
97 98
8 17
63 316
82 91
26 177
53 280
74 83
73 356
28 223
56 65
15 24
53 316
89 98
48 57
63 64
63 73
15 136
4 5
4 14
22 31
35 248
37 38
46 254
37 47
55 64
70 80
1 120
25 176
29 39
11 12
22 161
11 21
63 315
52 278
62 72
44 45
44 54
3 13
53 279
73 355
28 222
46 258
36 46
96 97
18 19
18 28
83 432
10 20
15 135
8 114
45 252
11 119
37 257
21 160
85 86
46 253
88 97
77 78
25 175
29 38
77 87
93 431
22 160
52 277
62 71
62 318
45 247
51 52
3 12
51 61
53 278
73 354
46 257
36 45
14 133
69 78
10 19
15 134
25 26
25 35
8 113
45 251
43 52
37 256
38 221
21 159
17 18
17 27
72 353
4 106
76 85
50 60
77 86
93 430
83 93
37 224
62 317
24 34
84 85
84 94
9 18
57 67
3 105
58 59
58 68
42 51
90 100
44 249
16 178
31 41
91 92
75 84
32 33
45 250
32 42
16 25
43 280
64 74
37 255
92 429
5 15
65 66
17 26
65 75
49 58
6 7
6 16
98 99
50 59
39 40
5 136
39 49
23 32
83 92
37 223
62 316
72 73
24 33
72 82
36 254
57 66
72 356
12 162
30 39
90 99
44 248
16 177
63 356
43 279
64 73
38 39
47 258
5 14
38 48
71 72
71 81
12 13
12 22
5 135
26 176
37 222
13 14
45 46
13 23
45 55
72 81
53 315
36 253
46 47
78 79
46 56
78 88
12 161
19 20
19 29
79 80
79 89
63 72
52 53
20 30
4 13
52 62
63 355
35 247
53 54
53 63
37 46
85 95
43 278
26 27
26 36
47 257
86 87
38 47
86 96
70 79
1 119
27 28
27 37
12 21
60 70
5 134
44 53
1 2
26 175
1 11
93 94
45 54
28 221
18 27
78 87
83 431
19 28
63 318
52 61
46 252
85 94
59 60
26 35
59 69
22 159
92 93
33 34
33 43
53 277
34 35
66 67
35 250
34 44
73 353
66 76
46 256
7 8
